p cnf 11 22
-11 -9 4 0
11 -9 -1 0
-11 7 6 0
11 7 -2 0
-10 8 -5 0
-10 8 -1 0
10 -5 -4 0
10 -4 -2 0
10 3 2 0
9 -8 -4 0
-9 -6 -4 0
-9 -5 -1 0
9 2 1 0
-8 6 5 0
-8 -6 -4 0
8 5 4 0
-8 -4 -2 0
-7 6 3 0
7 5 -1 0
-4 3 -2 0
4 -3 2 0
-4 -3 -1 0
